\ENCODING=ISO-8859-1
\Problem name: instances

Maximize
 obj:
Subject To
 c1: 80 x1 - 21 x2 + 42 x3 + 95 x4 + 11 x5 + 23 x6 + 3 x7 + 19 x8 + 89 x9
     + 36 x10 <= 358
 c2: 49 x1 + 54 x2 - 82 x3 + 87 x4 + 21 x5 + 73 x6 + 60 x7 + 64 x8 + 63 x9
     - 68 x10 <= 153
 c3: 5 x1 + 72 x2 + 60 x3 + 22 x4 + 53 x5 + 17 x7 + 50 x8 + 27 x9 + 29 x10
     <= 209
 c4: - 31 x2 + 68 x3 + 97 x4 + 34 x5 + 55 x6 + 33 x7 + 29 x8 + 40 x9 + 78 x10
     <= 206
 c5: 96 x1 + 58 x2 + 29 x3 + 93 x4 + 21 x5 + 80 x6 + 9 x7 + 90 x8 + 51 x9
     <= 422
Bounds
      x1 >= 0
      x2 >= 0
      x3 >= 0
      x4 >= 0
      x5 >= 0
      x6 >= 0
      x7 >= 0
      x8 >= 0
      x9 >= 0
      x10 >= 0
Generals
 x1  x2  x3  x4  x5  x6  x7  x8  x9  x10 
End
